NAME : city031.1300492.tour
COMMENT : Length = 1300492
COMMENT : Found by LKH [Keld Helsgaun] Mon Jul  1 18:35:30 2024
TYPE : TOUR
DIMENSION : 100
TOUR_SECTION
1
48
82
3
75
17
100
37
98
78
86
27
49
52
63
62
97
23
65
12
84
30
72
19
59
76
56
4
16
35
74
58
38
54
64
81
51
61
80
79
95
60
15
96
7
85
40
24
34
39
18
11
93
46
6
94
9
14
91
45
8
66
32
71
29
10
57
67
36
53
41
22
73
2
43
55
26
89
69
21
47
88
5
13
92
77
99
33
90
70
28
31
20
68
25
83
42
44
50
87
-1
EOF
